33 33
23
3 3   24 0 
3 4   3 24
3 5   3 28
3 6   6 13
3 7   0 26
3 8   30 15
3 9   0 17
3 10  30 23
3 13  6 0 
3 14  6 19
3 15  30 0 
3 17  0 0 
3 24  3 0 
3 30  20 3 
3 33  27 0 
4 3   20 0 
4 4   16 29
4 6   23 27
4 10  23 3 
4 12  16 0 
4 14  23 13
4 17  16 12
7 33  9 0 
